1 1 -2 0
1 1 3 0
1 -2 4 0
1 2 5 0
1 2 1 0
1 -6 -7 0
1 6 8 0
1 6 9 0
1 6 10 0
1 -6 11 0
1 6 -12 0
1 -6 -13 0
1 14 -7 0
1 14 15 0
1 14 5 0
1 14 11 0
1 -14 -6 0
1 14 -13 0
1 5 16 0
1 -5 17 0
1 5 -18 0
1 -5 -19 0
1 5 -13 0
1 -13 -20 0
1 -13 -16 0
1 13 -17 0
1 -13 18 0
1 -13 -14 0
1 -9 -21 0
1 -9 -14 0
1 -9 2 0
1 -9 22 0
1 9 23 0
1 9 6 0
1 -9 3 0
1 3 16 0
1 -3 21 0
1 3 -9 0
1 -3 -23 0
1 -3 24 0
1 -3 1 0
1 -3 25 0
1 19 7 0
1 19 24 0
1 18 -7 0
1 -18 8 0
1 -18 -5 0
1 -18 11 0
1 18 13 0
1 -26 -17 0
1 26 27 0
1 26 5 0
1 26 -11 0
1 26 28 0
1 26 23 0
1 26 29 0
1 26 13 0
1 -17 -7 0
1 17 8 0
1 17 27 0
1 17 -30 0
1 -17 -31 0
1 -17 -5 0
1 -17 10 0
1 -17 11 0
1 -17 26 0
1 17 -28 0
1 17 -13 0
1 -11 32 0
1 -11 -17 0
1 -11 18 0
1 -11 14 0
1 -11 -33 0
1 -11 34 0
1 11 35 0
1 11 26 0
1 -11 36 0
1 8 -32 0
1 8 37 0
1 -8 -17 0
1 8 -34 0
1 8 38 0
1 8 -19 0
1 8 6 0
1 -10 -7 0
1 10 16 0
1 -10 -17 0
1 10 -14 0
1 -10 -33 0
1 -10 -39 0
1 10 -40 0
1 -7 41 0
1 7 -16 0
1 7 -17 0
1 7 -18 0
1 -7 -33 0
1 -7 39 0
1 7 -26 0
1 7 6 0
1 -7 36 0
1 -38 32 0
1 -38 8 0
1 -38 -31 0
1 38 42 0
1 38 28 0
1 -38 -29 0
1 -32 27 0
1 -32 -31 0
1 -32 38 0
1 -34 -8 0
1 -34 39 0
1 34 11 0
1 34 28 0
1 43 -44 0
1 43 8 0
1 -43 -31 0
1 43 -34 0
1 43 -28 0
1 43 -29 0
1 -29 32 0
1 29 45 0
1 -29 -34 0
1 -29 38 0
1 -31 -32 0
1 -31 -46 0
1 -31 34 0
1 -31 -38 0
1 31 -26 0
1 -31 47 0
1 -28 -43 0
1 28 -32 0
1 28 -33 0
1 -28 34 0
1 28 -26 0
1 28 48 0
1 -28 -47 0
1 28 -49 0
1 28 -36 0
1 -27 43 0
1 -27 -32 0
1 27 17 0
1 27 -45 0
1 -27 -50 0
1 27 34 0
1 -27 -38 0
1 -27 -26 0
1 -27 -28 0
1 -27 -49 0
1 51 -4 0
1 51 -52 0
1 -51 53 0
1 51 -1 0
1 -4 -54 0
1 4 55 0
1 -4 52 0
1 -4 53 0
1 -12 54 0
1 12 -56 0
1 -12 52 0
1 12 53 0
1 -12 57 0
1 15 54 0
1 -15 -55 0
1 15 -56 0
1 -15 -58 0
1 15 14 0
1 15 59 0
1 15 -52 0
1 15 60 0
1 -15 12 0
1 55 -30 0
1 55 21 0
1 55 -4 0
1 55 -53 0
1 55 -61 0
1 -55 23 0
1 -55 -24 0
1 -55 -12 0
1 55 -51 0
1 -53 62 0
1 53 -15 0
1 -53 4 0
1 53 23 0
1 53 24 0
1 -53 12 0
1 -53 -51 0
1 54 63 0
1 54 62 0
1 54 -64 0
1 -54 65 0
1 54 -15 0
1 -54 52 0
1 -54 61 0
1 54 -66 0
1 -54 67 0
1 -54 -51 0
1 52 -62 0
1 52 -61 0
1 -52 66 0
1 -52 67 0
1 -24 -55 0
1 -24 56 0
1 24 21 0
1 24 58 0
1 24 -68 0
1 24 -60 0
1 -24 19 0
1 -24 -67 0
1 24 -3 0
1 21 -55 0
1 -21 -56 0
1 -21 -58 0
1 -21 -24 0
1 -21 -3 0
1 -23 -55 0
1 -23 58 0
1 23 -69 0
1 23 -9 0
1 23 -68 0
1 23 -26 0
1 23 -60 0
1 23 66 0
1 23 70 0
1 -23 71 0
1 23 3 0
1 -30 -60 0
1 30 -55 0
1 -30 64 0
1 -30 -58 0
1 -30 72 0
1 30 69 0
1 -30 9 0
1 30 -53 0
1 30 -23 0
1 -30 -70 0
1 30 -3 0
1 58 73 0
1 58 -60 0
1 -58 16 0
1 -58 30 0
1 58 -21 0
1 58 -74 0
1 58 -15 0
1 58 39 0
1 58 -23 0
1 -58 12 0
1 -60 73 0
1 60 -16 0
1 60 30 0
1 60 -21 0
1 -60 -58 0
1 60 -42 0
1 -60 23 0
1 -60 12 0
1 -56 -75 0
1 56 -62 0
1 56 -76 0
1 -56 15 0
1 -56 77 0
1 -56 -68 0
1 56 -23 0
1 56 12 0
1 -68 -75 0
1 68 62 0
1 -68 30 0
1 -68 15 0
1 -68 -77 0
1 -68 61 0
1 68 23 0
1 -68 78 0
1 -68 24 0
1 42 -7 0
1 42 72 0
1 -42 -69 0
1 42 -5 0
1 42 38 0
1 -42 61 0
1 -42 70 0
1 -42 -71 0
1 -16 -72 0
1 -16 5 0
1 16 -42 0
1 -16 60 0
1 16 -71 0
1 -16 13 0
1 -39 -7 0
1 39 -58 0
1 39 72 0
1 39 -22 0
1 39 79 0
1 39 -10 0
1 -39 34 0
1 39 80 0
1 39 60 0
1 -39 71 0
1 39 25 0
1 -44 43 0
1 44 7 0
1 -44 -75 0
1 -44 72 0
1 44 -22 0
1 44 -60 0
1 -44 70 0
1 -44 -25 0
1 -69 16 0
1 69 30 0
1 -69 33 0
1 69 71 0
1 -69 -81 0
1 69 49 0
1 69 36 0
1 71 -16 0
1 -71 30 0
1 71 -69 0
1 -71 82 0
1 71 -50 0
1 71 -33 0
1 -71 -83 0
1 71 -39 0
1 -71 42 0
1 71 23 0
1 -71 36 0
1 72 73 0
1 -72 44 0
1 72 84 0
1 72 82 0
1 72 85 0
1 72 -39 0
1 -72 42 0
1 -72 70 0
1 72 86 0
1 70 -73 0
1 -70 -44 0
1 -70 -30 0
1 70 72 0
1 -70 -82 0
1 -70 -77 0
1 -70 39 0
1 -70 23 0
1 -70 87 0
1 70 81 0
1 -70 -86 0
1 -33 -7 0
1 33 -8 0
1 33 22 0
1 33 77 0
1 33 10 0
1 33 -79 0
1 33 -11 0
1 -33 28 0
1 -33 71 0
1 -33 36 0
1 36 73 0
1 -36 7 0
1 -36 20 0
1 -36 69 0
1 36 22 0
1 -36 -79 0
1 -36 10 0
1 -36 -71 0
1 36 25 0
1 50 41 0
1 50 -37 0
1 50 -27 0
1 50 85 0
1 50 22 0
1 50 -79 0
1 -50 -35 0
1 -50 28 0
1 -50 71 0
1 -50 -49 0
1 -50 25 0
1 -49 20 0
1 49 41 0
1 49 37 0
1 -49 -69 0
1 -49 -50 0
1 49 -22 0
1 -49 -79 0
1 49 40 0
1 -49 35 0
1 -49 28 0
1 49 25 0
1 -49 -71 0
1 79 -20 0
1 -79 -44 0
1 79 -45 0
1 79 88 0
1 79 39 0
1 79 89 0
1 79 -47 0
1 79 -49 0
1 -79 -36 0
1 20 -44 0
1 20 -90 0
1 20 -45 0
1 20 79 0
1 -20 39 0
1 -20 -89 0
1 -20 -49 0
1 20 36 0
1 22 -44 0
1 22 91 0
1 22 -82 0
1 22 50 0
1 -22 9 0
1 22 -33 0
1 -22 39 0
1 22 -81 0
1 22 -25 0
1 -25 44 0
1 25 92 0
1 25 82 0
1 -25 -33 0
1 -25 39 0
1 25 93 0
1 -25 81 0
1 25 -49 0
1 25 -94 0
1 -45 27 0
1 -45 37 0
1 -45 -31 0
1 -45 79 0
1 45 -40 0
1 45 -35 0
1 47 41 0
1 47 -31 0
1 -47 -40 0
1 47 35 0
1 -90 -41 0
1 90 37 0
1 -90 46 0
1 -90 -92 0
1 -90 -79 0
1 -90 -40 0
1 90 -48 0
1 90 95 0
1 89 -41 0
1 89 79 0
1 89 35 0
1 89 48 0
1 89 95 0
1 -89 96 0
1 35 97 0
1 35 -37 0
1 -35 -45 0
1 35 50 0
1 -35 98 0
1 35 11 0
1 35 99 0
1 35 -100 0
1 35 101 0
1 35 89 0
1 -35 -47 0
1 35 -49 0
1 -37 97 0
1 37 -102 0
1 37 -90 0
1 -37 -45 0
1 -37 50 0
1 -37 98 0
1 -37 99 0
1 -37 -35 0
1 37 -101 0
1 -37 89 0
1 37 47 0
1 37 -49 0
1 40 -41 0
1 -40 97 0
1 -40 91 0
1 -40 50 0
1 -40 10 0
1 40 98 0
1 -40 -103 0
1 -40 -104 0
1 40 -93 0
1 40 47 0
1 -41 7 0
1 41 -105 0
1 41 97 0
1 -41 -106 0
1 41 45 0
1 41 50 0
1 -41 98 0
1 -41 104 0
1 -41 -93 0
1 -41 -89 0
1 41 -47 0
1 -41 49 0
1 -107 -37 0
1 -107 108 0
1 -107 -91 0
1 107 -35 0
1 -107 95 0
1 -101 -108 0
1 101 46 0
1 101 -35 0
1 101 93 0
1 -101 95 0
1 109 106 0
1 109 -99 0
1 109 48 0
1 99 109 0
1 -99 -108 0
1 99 46 0
1 99 -104 0
1 99 48 0
1 -99 95 0
1 95 -109 0
1 95 -107 0
1 -95 -46 0
1 95 -110 0
1 95 99 0
1 95 -29 0
1 95 89 0
1 95 -111 0
1 -46 -112 0
1 46 113 0
1 -46 -90 0
1 46 -99 0
1 -46 -101 0
1 46 95 0
1 48 -112 0
1 -48 114 0
1 48 97 0
1 48 -108 0
1 48 -90 0
1 48 -110 0
1 48 -98 0
1 48 99 0
1 -48 28 0
1 -48 115 0
1 -48 89 0
1 -108 112 0
1 -108 -114 0
1 -108 -97 0
1 108 -109 0
1 108 107 0
1 -108 -110 0
1 -108 -98 0
1 -108 101 0
1 108 -89 0
1 116 117 0
1 116 118 0
1 -118 -119 0
1 118 -4 0
1 -118 120 0
1 -118 -121 0
1 -118 -122 0
1 -118 116 0
1 57 -117 0
1 -57 -119 0
1 -57 123 0
1 57 59 0
1 -57 124 0
1 -57 121 0
1 -57 -125 0
1 -57 -12 0
1 -57 -126 0
1 57 127 0
1 -59 119 0
1 59 -15 0
1 -59 -128 0
1 -59 121 0
1 59 -122 0
1 122 -119 0
1 -122 65 0
1 -122 118 0
1 -122 -67 0
1 -119 -122 0
1 -119 129 0
1 -119 130 0
1 119 118 0
1 119 131 0
1 119 -116 0
1 121 -132 0
1 -121 -117 0
1 121 129 0
1 121 133 0
1 121 -118 0
1 121 -134 0
1 -121 -116 0
1 -117 129 0
1 -117 135 0
1 117 133 0
1 117 118 0
1 -117 -121 0
1 117 131 0
1 117 134 0
1 67 -119 0
1 -67 -124 0
1 -67 -52 0
1 67 -125 0
1 -67 -136 0
1 -67 126 0
1 65 54 0
1 -65 119 0
1 65 21 0
1 65 123 0
1 -65 -133 0
1 -65 125 0
1 -65 122 0
1 65 -67 0
1 65 126 0
1 -66 -137 0
1 -66 -54 0
1 66 64 0
1 -66 119 0
1 -66 124 0
1 66 138 0
1 66 139 0
1 -66 52 0
1 -66 -134 0
1 -66 126 0
1 -66 -140 0
1 64 54 0
1 64 119 0
1 64 -135 0
1 64 52 0
1 -64 -66 0
1 64 125 0
1 -64 126 0
1 -64 -140 0
1 -126 141 0
1 126 -62 0
1 -126 -64 0
1 126 65 0
1 -126 -59 0
1 126 -142 0
1 -126 -80 0
1 126 61 0
1 -126 66 0
1 -126 67 0
1 -126 57 0
1 124 -141 0
1 -124 75 0
1 -124 59 0
1 124 -143 0
1 -124 -142 0
1 -124 61 0
1 -124 -66 0
1 124 67 0
1 124 -57 0
1 -125 144 0
1 -125 -59 0
1 125 66 0
1 125 -67 0
1 -123 -141 0
1 123 -144 0
1 -123 -129 0
1 -123 -145 0
1 123 142 0
1 -123 67 0
1 -123 -57 0
1 -61 137 0
1 -61 -55 0
1 -61 56 0
1 -61 139 0
1 61 52 0
1 61 -53 0
1 -61 68 0
1 61 42 0
1 61 131 0
1 -61 -140 0
1 -62 -54 0
1 -62 16 0
1 -62 56 0
1 62 124 0
1 -62 -138 0
1 -62 139 0
1 -62 52 0
1 -62 53 0
1 62 61 0
1 -62 -126 0
1 80 -75 0
1 -80 -146 0
1 80 -56 0
1 -80 138 0
1 80 139 0
1 -80 147 0
1 -80 -148 0
1 -80 68 0
1 -75 -137 0
1 -75 44 0
1 75 -63 0
1 75 144 0
1 75 56 0
1 75 138 0
1 -75 139 0
1 75 -147 0
1 75 80 0
1 -75 68 0
1 -75 -148 0
1 -75 -126 0
1 75 140 0
1 -137 73 0
1 137 75 0
1 137 -62 0
1 -137 64 0
1 137 -149 0
1 137 -85 0
1 -137 -139 0
1 -137 77 0
1 -137 61 0
1 -137 -150 0
1 137 -86 0
1 -139 137 0
1 139 75 0
1 139 -62 0
1 -139 -64 0
1 139 85 0
1 139 151 0
1 -139 77 0
1 139 80 0
1 -139 150 0
1 139 86 0
1 140 -141 0
1 -140 75 0
1 140 -62 0
1 -140 152 0
1 140 64 0
1 -140 138 0
1 -140 -149 0
1 -140 -80 0
1 -140 61 0
1 140 -150 0
1 -140 -153 0
1 138 141 0
1 -138 149 0
1 -138 -154 0
1 138 -80 0
1 138 61 0
1 138 150 0
1 -138 -140 0
1 -138 -153 0
1 77 -73 0
1 -77 -137 0
1 -77 -146 0
1 77 56 0
1 -77 33 0
1 77 142 0
1 -77 -148 0
1 77 60 0
1 77 70 0
1 -73 -137 0
1 73 -141 0
1 73 -63 0
1 73 146 0
1 73 -56 0
1 73 -72 0
1 73 139 0
1 -73 -148 0
1 73 -60 0
1 73 70 0
1 73 -36 0
1 -85 63 0
1 85 146 0
1 -85 76 0
1 85 50 0
1 85 -139 0
1 85 -154 0
1 85 -148 0
1 -85 -78 0
1 85 155 0
1 -85 -86 0
1 86 -146 0
1 86 -74 0
1 86 -85 0
1 -86 -139 0
1 -86 147 0
1 -86 155 0
1 -86 -153 0
1 -146 -73 0
1 146 -55 0
1 -146 -156 0
1 146 -157 0
1 -146 -92 0
1 146 -82 0
1 -146 85 0
1 -146 -158 0
1 146 81 0
1 -146 86 0
1 148 -157 0
1 148 -77 0
1 148 -53 0
1 148 80 0
1 -148 96 0
1 148 -81 0
1 63 54 0
1 63 159 0
1 -63 157 0
1 -63 160 0
1 -63 -149 0
1 -63 147 0
1 63 -80 0
1 -63 158 0
1 63 161 0
1 -63 -150 0
1 147 73 0
1 147 -75 0
1 147 -63 0
1 -147 -160 0
1 -147 -77 0
1 147 -52 0
1 -147 -162 0
1 -147 158 0
1 -147 161 0
1 147 86 0
1 -82 -72 0
1 82 22 0
1 -82 -148 0
1 -82 -155 0
1 82 -70 0
1 -82 -71 0
1 81 74 0
1 81 -72 0
1 -81 71 0
1 81 69 0
1 -81 -82 0
1 -81 -22 0
1 -81 148 0
1 -81 -78 0
1 -81 -155 0
1 92 74 0
1 92 -90 0
1 -92 84 0
1 -92 160 0
1 92 163 0
1 -92 -22 0
1 92 -155 0
1 92 -96 0
1 92 83 0
1 92 25 0
1 96 76 0
1 -96 92 0
1 -96 84 0
1 -96 -148 0
1 96 -78 0
1 -96 155 0
1 -96 -89 0
1 96 -87 0
1 -96 -161 0
1 96 83 0
1 96 -25 0
1 -74 -155 0
1 74 -164 0
1 74 -106 0
1 -74 -58 0
1 -74 91 0
1 -74 -165 0
1 74 -92 0
1 -74 -82 0
1 74 85 0
1 74 -166 0
1 -74 -93 0
1 74 -81 0
1 155 106 0
1 -155 -74 0
1 155 -166 0
1 155 104 0
1 -155 96 0
1 -76 166 0
1 -76 158 0
1 -76 96 0
1 76 86 0
1 78 -164 0
1 78 167 0
1 -78 -76 0
1 78 168 0
1 78 -157 0
1 78 -92 0
1 78 -82 0
1 -78 -68 0
1 78 158 0
1 78 -96 0
1 -78 81 0
1 -78 86 0
1 91 -20 0
1 91 155 0
1 91 107 0
1 91 157 0
1 91 22 0
1 -91 -93 0
1 91 87 0
1 -91 -83 0
1 -91 25 0
1 -93 20 0
1 -93 74 0
1 93 22 0
1 -93 155 0
1 -106 169 0
1 -106 41 0
1 106 109 0
1 -106 74 0
1 106 88 0
1 -106 40 0
1 106 87 0
1 106 83 0
1 -106 -94 0
1 104 169 0
1 -104 106 0
1 104 74 0
1 104 -84 0
1 104 163 0
1 104 88 0
1 104 155 0
1 104 94 0
1 -163 170 0
1 -163 114 0
1 163 97 0
1 -163 69 0
1 -163 171 0
1 163 172 0
1 -163 -173 0
1 -163 96 0
1 -83 170 0
1 -83 114 0
1 83 -97 0
1 83 -106 0
1 -83 -91 0
1 83 -92 0
1 83 163 0
1 -83 172 0
1 83 -173 0
1 -83 -98 0
1 83 104 0
1 83 -71 0
1 83 -174 0
1 84 170 0
1 84 -175 0
1 84 164 0
1 84 -106 0
1 -84 -91 0
1 84 -72 0
1 84 92 0
1 -84 -176 0
1 84 -172 0
1 84 -177 0
1 84 104 0
1 84 -96 0
1 87 170 0
1 87 -175 0
1 87 -91 0
1 87 84 0
1 -87 166 0
1 87 104 0
1 87 93 0
1 -87 70 0
1 -87 96 0
1 -97 -37 0
1 -97 -164 0
1 -97 108 0
1 -97 163 0
1 -97 -98 0
1 97 -35 0
1 97 -48 0
1 97 -83 0
1 -97 -94 0
1 -98 169 0
1 -98 -41 0
1 -98 97 0
1 98 -37 0
1 98 178 0
1 98 -166 0
1 -98 -35 0
1 98 94 0
1 -114 169 0
1 114 -175 0
1 114 -105 0
1 -114 -102 0
1 -114 163 0
1 -114 -178 0
1 114 103 0
1 -114 -100 0
1 -114 48 0
1 114 -83 0
1 -114 94 0
1 173 -169 0
1 -173 -105 0
1 173 178 0
1 173 -103 0
1 173 -83 0
1 -173 94 0
1 -88 -112 0
1 88 169 0
1 88 -114 0
1 -88 -97 0
1 -88 106 0
1 88 -173 0
1 88 104 0
1 169 114 0
1 -169 -179 0
1 -169 -104 0
1 169 -180 0
1 -169 181 0
1 -178 170 0
1 178 97 0
1 178 -106 0
1 178 179 0
1 -178 22 0
1 178 -98 0
1 -178 94 0
1 94 182 0
1 -94 170 0
1 94 114 0
1 -94 -97 0
1 94 -106 0
1 94 -179 0
1 -94 183 0
1 -94 -172 0
1 94 173 0
1 -94 -178 0
1 -94 98 0
1 -94 104 0
1 94 -180 0
1 -94 25 0
1 -112 -105 0
1 -112 110 0
1 110 112 0
1 110 -108 0
1 110 46 0
1 -110 -88 0
1 181 -169 0
1 -181 -113 0
1 181 88 0
1 -181 -111 0
1 181 184 0
1 185 105 0
1 -185 -102 0
1 185 -186 0
1 185 -113 0
1 185 183 0
1 185 -88 0
1 -185 103 0
1 185 100 0
1 -185 -115 0
1 185 181 0
1 100 -112 0
1 -100 114 0
1 100 -102 0
1 -100 -187 0
1 -100 188 0
1 100 185 0
1 100 -173 0
1 -100 189 0
1 -100 190 0
1 100 -181 0
1 102 112 0
1 -102 -114 0
1 -102 -191 0
1 -102 -187 0
1 -102 188 0
1 102 185 0
1 -102 189 0
1 102 -190 0
1 -102 -192 0
1 102 -181 0
1 103 -114 0
1 103 193 0
1 103 179 0
1 -103 -110 0
1 103 173 0
1 -103 194 0
1 -103 -195 0
1 103 180 0
1 103 181 0
1 -105 -112 0
1 105 -196 0
1 -105 193 0
1 -105 179 0
1 105 -185 0
1 105 110 0
1 105 103 0
1 -105 -181 0
1 192 186 0
1 -192 -113 0
1 192 100 0
1 192 -115 0
1 -192 111 0
1 192 -180 0
1 -197 -102 0
1 -197 -186 0
1 197 179 0
1 197 100 0
1 -197 115 0
1 -197 -111 0
1 -197 -192 0
1 190 -102 0
1 190 -100 0
1 190 -115 0
1 190 195 0
1 188 -113 0
1 188 -115 0
1 188 190 0
1 111 198 0
1 -111 113 0
1 111 -199 0
1 111 -95 0
1 111 -190 0
1 111 -200 0
1 -111 -192 0
1 -111 181 0
1 -113 46 0
1 -113 -188 0
1 113 201 0
1 -113 185 0
1 -113 -199 0
1 113 -190 0
1 -113 192 0
1 115 -198 0
1 115 187 0
1 -115 186 0
1 115 188 0
1 -115 -197 0
1 115 -185 0
1 115 199 0
1 115 -202 0
1 115 -189 0
1 115 190 0
1 115 -181 0
1 186 198 0
1 186 -203 0
1 -186 -108 0
1 -186 188 0
1 186 197 0
1 -186 -199 0
1 186 115 0
1 186 189 0
1 186 -192 0
1 -186 -181 0
1 204 205 0
1 204 -206 0
1 -204 -207 0
1 204 116 0
1 120 -206 0
1 120 -207 0
1 -120 -204 0
1 -127 -207 0
1 -127 208 0
1 128 209 0
1 128 205 0
1 -128 207 0
1 -128 127 0
1 -206 -135 0
1 206 128 0
1 -206 210 0
1 206 -120 0
1 -206 207 0
1 -206 -136 0
1 207 128 0
1 -207 -206 0
1 207 -120 0
1 -207 -136 0
1 -207 -211 0
1 -205 128 0
1 205 -212 0
1 -205 127 0
1 -205 -204 0
1 -212 -205 0
1 212 128 0
1 212 120 0
1 212 -213 0
1 212 -127 0
1 -212 204 0
1 -136 -133 0
1 136 -121 0
1 136 67 0
1 -136 -207 0
1 136 209 0
1 133 117 0
1 133 -65 0
1 -133 206 0
1 -133 214 0
1 -133 -215 0
1 133 121 0
1 134 216 0
1 134 217 0
1 134 117 0
1 134 -135 0
1 134 214 0
1 -134 218 0
1 134 219 0
1 134 66 0
1 134 207 0
1 -134 209 0
1 134 208 0
1 135 -216 0
1 135 217 0
1 135 -117 0
1 135 64 0
1 135 206 0
1 135 214 0
1 135 -215 0
1 -135 121 0
1 135 -134 0
1 135 -209 0
1 -135 -208 0
1 215 220 0
1 -215 144 0
1 215 -129 0
1 215 133 0
1 215 -128 0
1 -215 -221 0
1 -215 -222 0
1 215 223 0
1 208 144 0
1 208 129 0
1 208 -135 0
1 208 128 0
1 208 -215 0
1 208 -222 0
1 208 223 0
1 208 134 0
1 -208 -127 0
1 -214 135 0
1 -214 133 0
1 -214 134 0
1 214 -136 0
1 209 -135 0
1 209 133 0
1 -209 -127 0
1 131 216 0
1 -131 -129 0
1 131 -123 0
1 131 215 0
1 131 -218 0
1 131 -219 0
1 -131 61 0
1 131 -121 0
1 131 125 0
1 -129 -216 0
1 -129 217 0
1 129 -62 0
1 -129 -117 0
1 -129 119 0
1 -129 -215 0
1 -129 -219 0
1 -129 -121 0
1 129 122 0
1 -129 208 0
1 223 216 0
1 -223 144 0
1 -223 -130 0
1 223 123 0
1 -223 -215 0
1 223 -218 0
1 -223 132 0
1 -223 208 0
1 144 216 0
1 144 -217 0
1 144 -215 0
1 -144 -218 0
1 -144 219 0
1 -144 132 0
1 -144 -125 0
1 219 -141 0
1 219 -217 0
1 -219 -144 0
1 219 -129 0
1 -219 135 0
1 219 154 0
1 -219 223 0
1 -219 -224 0
1 217 -141 0
1 -217 -144 0
1 217 -225 0
1 -217 -129 0
1 217 226 0
1 217 -154 0
1 -217 -142 0
1 217 -219 0
1 217 131 0
1 217 -153 0
1 -218 -227 0
1 218 -216 0
1 218 220 0
1 218 144 0
1 218 226 0
1 218 222 0
1 218 223 0
1 218 131 0
1 218 -134 0
1 -216 -227 0
1 -216 -228 0
1 -216 144 0
1 -216 -129 0
1 -216 -135 0
1 -216 226 0
1 -216 229 0
1 216 218 0
1 -216 222 0
1 -216 134 0
1 216 -230 0
1 142 -217 0
1 142 231 0
1 142 130 0
1 -142 -123 0
1 142 124 0
1 142 -138 0
1 -142 77 0
1 142 222 0
1 142 132 0
1 142 232 0
1 142 -125 0
1 -142 -140 0
1 141 -220 0
1 -141 -231 0
1 -141 130 0
1 141 123 0
1 -141 -124 0
1 -141 142 0
1 141 132 0
1 141 125 0
1 154 217 0
1 -154 -130 0
1 154 145 0
1 154 138 0
1 -154 -85 0
1 -154 -229 0
1 -154 233 0
1 154 -140 0
1 -153 227 0
1 -153 -231 0
1 153 130 0
1 153 145 0
1 -153 143 0
1 -153 -138 0
1 -153 154 0
1 -153 -219 0
1 153 -132 0
1 153 -232 0
1 153 -233 0
1 153 -140 0
1 153 86 0
1 232 141 0
1 -232 144 0
1 -232 -234 0
1 -232 160 0
1 232 -149 0
1 -232 154 0
1 232 -142 0
1 232 -223 0
1 232 122 0
1 232 235 0
1 -232 153 0
1 130 -141 0
1 130 -234 0
1 -130 160 0
1 -130 -149 0
1 130 150 0
1 -130 153 0
1 -132 -234 0
1 132 236 0
1 132 -226 0
1 -231 141 0
1 231 144 0
1 -231 117 0
1 231 237 0
1 -231 -234 0
1 231 236 0
1 -231 142 0
1 -231 235 0
1 231 -153 0
1 149 -137 0
1 149 -130 0
1 149 145 0
1 -149 138 0
1 149 -226 0
1 -149 -139 0
1 -149 147 0
1 -149 233 0
1 149 238 0
1 149 150 0
1 -150 140 0
1 -150 -63 0
1 150 130 0
1 -150 -145 0
1 -150 -138 0
1 150 -149 0
1 150 233 0
1 150 -81 0
1 -160 -239 0
1 160 63 0
1 160 -92 0
1 -160 -236 0
1 -160 -240 0
1 160 161 0
1 160 -238 0
1 161 -239 0
1 -161 -130 0
1 -161 145 0
1 161 -240 0
1 161 -147 0
1 -161 -96 0
1 161 233 0
1 -161 -241 0
1 161 238 0
1 -161 -152 0
1 -238 168 0
1 238 157 0
1 -238 160 0
1 238 -143 0
1 238 154 0
1 -238 242 0
1 238 243 0
1 -238 158 0
1 -238 161 0
1 -238 -126 0
1 238 -150 0
1 238 -244 0
1 238 -153 0
1 143 -245 0
1 -143 -157 0
1 143 160 0
1 -143 -246 0
1 143 -154 0
1 -143 -243 0
1 -143 158 0
1 143 -161 0
1 143 150 0
1 233 -247 0
1 -233 145 0
1 -233 -149 0
1 233 -154 0
1 233 242 0
1 233 235 0
1 233 150 0
1 233 -153 0
1 145 245 0
1 -145 -247 0
1 -145 123 0
1 145 -234 0
1 -145 154 0
1 145 -235 0
1 -145 153 0
1 -157 -239 0
1 -157 -63 0
1 -157 146 0
1 157 -76 0
1 -157 91 0
1 -157 234 0
1 157 151 0
1 -157 147 0
1 -157 148 0
1 157 78 0
1 157 -238 0
1 157 152 0
1 -158 -239 0
1 -158 146 0
1 158 76 0
1 158 151 0
1 158 147 0
1 158 -148 0
1 158 -78 0
1 -158 152 0
1 -168 239 0
1 -168 -156 0
1 168 -76 0
1 -168 247 0
1 168 -240 0
1 -168 -248 0
1 168 243 0
1 -168 238 0
1 -243 239 0
1 243 -156 0
1 -243 -168 0
1 -243 240 0
1 243 162 0
1 -243 -248 0
1 -243 249 0
1 239 -137 0
1 -239 -250 0
1 -239 -175 0
1 -239 168 0
1 239 157 0
1 -239 160 0
1 239 251 0
1 -239 -166 0
1 239 -243 0
1 239 158 0
1 151 175 0
1 151 -157 0
1 151 -160 0
1 -151 139 0
1 151 -251 0
1 151 -177 0
1 -151 -252 0
1 -151 -243 0
1 -152 -253 0
1 -152 240 0
1 -152 -251 0
1 152 254 0
1 152 -161 0
1 -240 250 0
1 240 255 0
1 240 -251 0
1 240 254 0
1 240 -242 0
1 240 243 0
1 240 161 0
1 240 -152 0
1 -164 239 0
1 -164 97 0
1 164 -159 0
1 -164 245 0
1 164 76 0
1 -164 -156 0
1 -164 84 0
1 -164 151 0
1 -164 -166 0
1 -164 -87 0
1 166 239 0
1 166 159 0
1 166 -76 0
1 166 162 0
1 -166 -242 0
1 -166 78 0
1 -166 248 0
1 -166 -155 0
1 166 -87 0
1 -175 -239 0
1 -175 114 0
1 -175 256 0
1 -175 159 0
1 -175 -156 0
1 -175 257 0
1 175 151 0
1 -175 -177 0
1 -175 -162 0
1 175 167 0
1 175 258 0
1 177 175 0
1 -177 159 0
1 177 257 0
1 177 165 0
1 -177 84 0
1 -177 -151 0
1 -177 -173 0
1 -177 254 0
1 -177 -162 0
1 177 -248 0
1 -177 -258 0
1 -156 -170 0
1 -156 -175 0
1 156 -146 0
1 156 -259 0
1 156 168 0
1 -156 260 0
1 156 -183 0
1 156 -177 0
1 156 166 0
1 156 243 0
1 -248 -168 0
1 248 260 0
1 -248 -172 0
1 248 -177 0
1 -248 148 0
1 -248 -261 0
1 -248 243 0
1 159 250 0
1 159 -175 0
1 159 -164 0
1 -159 -262 0
1 159 -168 0
1 159 260 0
1 159 251 0
1 -159 -177 0
1 -159 -243 0
1 -162 -263 0
1 -162 250 0
1 -162 -175 0
1 -162 -164 0
1 162 260 0
1 -162 -264 0
1 -162 -147 0
1 162 -166 0
1 170 112 0
1 -170 250 0
1 170 -257 0
1 170 -178 0
1 170 -167 0
1 170 -258 0
1 -170 94 0
1 -172 -156 0
1 -172 257 0
1 172 165 0
1 -172 163 0
1 -172 -178 0
1 -172 251 0
1 172 248 0
1 172 167 0
1 -172 258 0
1 172 -87 0
1 172 -83 0
1 -184 263 0
1 184 -257 0
1 184 165 0
1 184 -183 0
1 -184 178 0
1 -184 248 0
1 184 167 0
1 184 -258 0
1 -184 174 0
1 184 -94 0
1 -183 257 0
1 -183 165 0
1 -183 184 0
1 183 -176 0
1 -183 185 0
1 -183 171 0
1 -183 264 0
1 183 -178 0
1 -183 -248 0
1 -183 167 0
1 183 258 0
1 -183 -265 0
1 183 -174 0
1 -183 -94 0
1 165 -258 0
1 165 -266 0
1 -165 74 0
1 165 -193 0
1 -165 -267 0
1 -165 -179 0
1 165 177 0
1 165 195 0
1 -165 184 0
1 258 -170 0
1 258 -175 0
1 258 193 0
1 258 -179 0
1 258 -183 0
1 -258 -172 0
1 -258 177 0
1 -258 180 0
1 -258 184 0
1 -257 170 0
1 -257 -76 0
1 -257 -268 0
1 257 -269 0
1 257 -260 0
1 -257 -177 0
1 -257 167 0
1 257 -270 0
1 167 -170 0
1 -167 175 0
1 -167 -257 0
1 -167 -183 0
1 -167 -177 0
1 167 78 0
1 167 -271 0
1 -167 272 0
1 -167 270 0
1 167 184 0
1 180 105 0
1 -180 -165 0
1 180 -179 0
1 -180 -176 0
1 -180 -258 0
1 -180 174 0
1 -179 -105 0
1 179 -165 0
1 -179 -176 0
1 -179 178 0
1 -179 103 0
1 179 -258 0
1 -179 265 0
1 195 -182 0
1 195 -105 0
1 195 -171 0
1 195 -273 0
1 -195 -258 0
1 -195 -265 0
1 195 -270 0
1 -195 174 0
1 -193 -274 0
1 -193 105 0
1 193 -188 0
1 -193 -165 0
1 193 265 0
1 -193 273 0
1 -193 -258 0
1 -193 -195 0
1 193 174 0
1 -171 -203 0
1 171 -187 0
1 -171 193 0
1 -171 -179 0
1 171 -275 0
1 171 276 0
1 171 -202 0
1 -171 174 0
1 171 189 0
1 -171 -195 0
1 -174 277 0
1 -174 -203 0
1 174 -187 0
1 -174 -193 0
1 -174 179 0
1 174 -276 0
1 174 202 0
1 174 -189 0
1 -174 195 0
1 174 180 0
1 174 -278 0
1 174 184 0
1 176 277 0
1 176 266 0
1 -176 -193 0
1 176 84 0
1 -176 -279 0
1 -176 -265 0
1 176 276 0
1 176 -280 0
1 -176 -272 0
1 -176 -195 0
1 -176 184 0
1 265 277 0
1 265 281 0
1 -265 -193 0
1 -265 179 0
1 -265 -276 0
1 -265 -272 0
1 -265 -87 0
1 265 195 0
1 265 282 0
1 265 -180 0
1 -189 -182 0
1 -189 -274 0
1 189 -105 0
1 -189 102 0
1 -189 -186 0
1 -189 187 0
1 189 -171 0
1 189 283 0
1 189 -103 0
1 189 100 0
1 189 115 0
1 189 -272 0
1 -189 -174 0
1 187 102 0
1 -187 -186 0
1 -187 266 0
1 -187 283 0
1 187 273 0
1 187 -103 0
1 187 -115 0
1 187 -189 0
1 202 182 0
1 -202 274 0
1 202 196 0
1 202 -203 0
1 202 -191 0
1 -202 186 0
1 202 280 0
1 -202 171 0
1 202 283 0
1 202 273 0
1 202 -194 0
1 202 -284 0
1 202 -115 0
1 203 -281 0
1 -203 186 0
1 -203 -191 0
1 203 171 0
1 203 273 0
1 -203 -202 0
1 203 -115 0
1 203 174 0
1 -273 285 0
1 -273 -274 0
1 273 198 0
1 273 -203 0
1 -273 -187 0
1 273 -286 0
1 273 199 0
1 273 202 0
1 -273 189 0
1 -273 195 0
1 274 285 0
1 274 198 0
1 -274 -203 0
1 -274 -187 0
1 274 -273 0
1 274 -202 0
1 -274 195 0
1 283 287 0
1 -283 182 0
1 283 -288 0
1 -283 277 0
1 -283 203 0
1 283 -178 0
1 -283 289 0
1 283 290 0
1 -283 276 0
1 -283 189 0
1 -182 287 0
1 -182 -277 0
1 182 193 0
1 -182 289 0
1 -182 283 0
1 -182 -276 0
1 -182 202 0
1 -182 -189 0
1 199 -274 0
1 -199 198 0
1 -199 -196 0
1 -199 186 0
1 199 113 0
1 -199 -276 0
1 199 -194 0
1 -199 -284 0
1 -199 -115 0
1 -198 274 0
1 -198 -196 0
1 -198 186 0
1 -198 113 0
1 -198 273 0
1 -198 194 0
1 -198 -284 0
1 -198 115 0
1 286 285 0
1 286 191 0
1 286 290 0
1 -286 284 0
1 -286 291 0
1 -285 -288 0
1 285 196 0
1 -285 201 0
1 285 284 0
1 285 -291 0
1 284 -191 0
1 284 292 0
1 284 100 0
1 191 285 0
1 -191 198 0
1 -191 -203 0
1 -191 102 0
1 191 292 0
1 -191 202 0
1 191 -284 0
1 -191 -293 0
1 194 -285 0
1 194 198 0
1 -194 196 0
1 194 -203 0
1 -194 -294 0
1 194 -289 0
1 194 199 0
1 194 202 0
1 194 295 0
1 196 -105 0
1 -196 -203 0
1 196 -294 0
1 196 286 0
1 196 295 0
1 296 -191 0
1 -296 -297 0
1 -296 -289 0
1 296 298 0
1 -296 284 0
1 -296 -200 0
1 298 -191 0
1 -298 -297 0
1 298 -201 0
1 298 -291 0
1 -292 191 0
1 292 297 0
1 -292 -201 0
1 -292 -284 0
1 292 200 0
1 -293 191 0
1 -293 201 0
1 -293 -292 0
1 293 284 0
1 -293 291 0
1 293 200 0
1 -200 285 0
1 -200 201 0
1 -200 -292 0
1 200 -296 0
1 200 -111 0
1 -200 298 0
1 -201 -113 0
1 -201 -286 0
1 -201 200 0
1 201 293 0
1 201 -298 0
1 -291 -296 0
1 291 -293 0
1 -297 -186 0
1 -297 -292 0
1 297 -296 0
1 297 -286 0
1 -297 291 0
1 297 293 0
1 -222 -216 0
1 222 214 0
1 222 -142 0
1 222 -218 0
1 -222 -211 0
1 -222 -209 0
1 222 208 0
1 220 216 0
1 -220 -210 0
1 -220 -215 0
1 220 -218 0
1 220 -222 0
1 220 -209 0
1 229 -216 0
1 229 -299 0
1 229 -300 0
1 -229 210 0
1 229 154 0
1 229 -221 0
1 229 218 0
1 229 -213 0
1 227 299 0
1 -227 -216 0
1 -227 210 0
1 -227 301 0
1 -227 -153 0
1 210 227 0
1 210 -220 0
1 -210 236 0
1 210 302 0
1 210 -229 0
1 -210 222 0
1 210 241 0
1 210 -230 0
1 -210 -211 0
1 211 227 0
1 211 -220 0
1 -211 236 0
1 -211 226 0
1 -211 222 0
1 211 207 0
1 211 -241 0
1 211 303 0
1 -211 230 0
1 -300 -227 0
1 300 -220 0
1 -300 304 0
1 -300 229 0
1 300 213 0
1 213 -227 0
1 -213 -300 0
1 -213 -305 0
1 -226 299 0
1 226 -216 0
1 -226 -217 0
1 -226 231 0
1 226 -301 0
1 226 -221 0
1 -226 -230 0
1 230 217 0
1 -230 231 0
1 -230 210 0
1 -230 -226 0
1 230 -306 0
1 230 -221 0
1 230 218 0
1 230 -219 0
1 -230 -132 0
1 -230 -150 0
1 230 -301 0
1 236 -231 0
1 236 -160 0
1 236 -210 0
1 -236 -221 0
1 236 -307 0
1 -236 -224 0
1 236 132 0
1 -241 225 0
1 241 -231 0
1 241 306 0
1 241 307 0
1 -241 132 0
1 -241 -161 0
1 241 -211 0
1 221 227 0
1 221 -308 0
1 221 -247 0
1 -221 -236 0
1 221 226 0
1 221 215 0
1 221 -229 0
1 221 -309 0
1 -221 310 0
1 221 -249 0
1 -221 -235 0
1 221 -241 0
1 221 230 0
1 299 -227 0
1 299 311 0
1 299 308 0
1 -299 234 0
1 299 236 0
1 -299 226 0
1 -299 -310 0
1 299 -249 0
1 299 235 0
1 299 241 0
1 -299 230 0
1 -306 227 0
1 306 -308 0
1 -306 214 0
1 306 226 0
1 306 229 0
1 -306 -310 0
1 306 -241 0
1 306 230 0
1 301 308 0
1 301 -226 0
1 -301 306 0
1 -301 -241 0
1 -234 231 0
1 -234 130 0
1 -234 -157 0
1 234 145 0
1 -234 221 0
1 234 224 0
1 234 132 0
1 -234 232 0
1 234 235 0
1 -234 233 0
1 -235 -299 0
1 -235 228 0
1 -235 -130 0
1 235 145 0
1 -235 234 0
1 -235 -132 0
1 -247 -299 0
1 -247 228 0
1 247 -225 0
1 -247 -312 0
1 247 -237 0
1 247 -168 0
1 -247 307 0
1 247 -224 0
1 247 -249 0
1 247 -313 0
1 247 -233 0
1 -249 299 0
1 -249 228 0
1 -249 225 0
1 -249 -237 0
1 249 -247 0
1 249 145 0
1 249 -221 0
1 -249 224 0
1 -249 -243 0
1 -249 -233 0
1 224 314 0
1 -224 -256 0
1 224 234 0
1 -224 254 0
1 -224 219 0
1 -224 315 0
1 224 -241 0
1 225 -314 0
1 225 245 0
1 225 -316 0
1 225 -247 0
1 -225 234 0
1 225 -236 0
1 225 317 0
1 -225 254 0
1 225 242 0
1 225 224 0
1 225 -249 0
1 -225 -241 0
1 307 -314 0
1 -307 -308 0
1 -307 247 0
1 -307 -234 0
1 -307 236 0
1 307 317 0
1 -307 318 0
1 -307 -249 0
1 -307 -235 0
1 -307 241 0
1 228 216 0
1 228 314 0
1 -228 -319 0
1 -228 308 0
1 -228 -247 0
1 -228 -234 0
1 -228 -236 0
1 228 -317 0
1 228 320 0
1 -228 235 0
1 -228 241 0
1 245 -321 0
1 245 -145 0
1 245 143 0
1 245 -242 0
1 -245 224 0
1 -245 238 0
1 245 152 0
1 -242 225 0
1 -242 245 0
1 -242 -321 0
1 -242 -145 0
1 242 -240 0
1 242 310 0
1 -242 -312 0
1 242 233 0
1 -242 238 0
1 -242 -152 0
1 -256 319 0
1 256 237 0
1 256 -321 0
1 -256 246 0
1 -256 -224 0
1 -256 313 0
1 256 -244 0
1 -256 -152 0
1 -254 256 0
1 254 -225 0
1 254 237 0
1 -254 -321 0
1 -254 -224 0
1 -254 -313 0
1 -254 322 0
1 -254 -244 0
1 254 -152 0
1 313 263 0
1 313 250 0
1 313 -256 0
1 313 -264 0
1 -313 -251 0
1 313 242 0
1 313 232 0
1 -313 323 0
1 -321 263 0
1 -321 -245 0
1 -321 -130 0
1 321 247 0
1 -321 -324 0
1 -321 -325 0
1 -321 264 0
1 -321 254 0
1 321 -323 0
1 312 -256 0
1 -312 245 0
1 -312 237 0
1 -312 247 0
1 -312 -325 0
1 312 -326 0
1 -312 -317 0
1 -312 254 0
1 312 -249 0
1 312 -327 0
1 237 -256 0
1 -237 245 0
1 -237 -328 0
1 -237 -254 0
1 -237 323 0
1 -250 -170 0
1 -250 314 0
1 250 -321 0
1 250 329 0
1 -250 -240 0
1 250 322 0
1 -250 152 0
1 -251 -239 0
1 -251 -250 0
1 -251 -321 0
1 -251 -246 0
1 251 240 0
1 251 -172 0
1 -251 151 0
1 251 317 0
1 -251 -162 0
1 251 -322 0
1 251 244 0
1 263 253 0
1 263 -330 0
1 263 331 0
1 263 -321 0
1 263 246 0
1 -263 252 0
1 263 -162 0
1 -263 313 0
1 -263 -244 0
1 -264 263 0
1 -264 -331 0
1 264 159 0
1 264 321 0
1 -264 183 0
1 264 -255 0
1 -264 -326 0
1 264 162 0
1 264 -313 0
1 -264 -322 0
1 -264 -244 0
1 244 263 0
1 -244 250 0
1 244 332 0
1 -244 -260 0
1 -244 254 0
1 244 238 0
1 244 -333 0
1 -246 263 0
1 246 -250 0
1 246 256 0
1 246 -332 0
1 -246 143 0
1 -246 -251 0
1 -246 -334 0
1 246 270 0
1 -246 244 0
1 -322 263 0
1 -322 -250 0
1 322 -256 0
1 -322 264 0
1 -322 251 0
1 -322 -254 0
1 322 -233 0
1 -322 335 0
1 322 323 0
1 -329 263 0
1 -329 250 0
1 329 256 0
1 329 -332 0
1 -329 145 0
1 -329 336 0
1 329 -325 0
1 329 -264 0
1 329 254 0
1 329 334 0
1 -329 322 0
1 -329 335 0
1 260 331 0
1 -260 159 0
1 -260 156 0
1 260 -257 0
1 -260 325 0
1 -260 -162 0
1 -260 248 0
1 260 -244 0
1 270 -253 0
1 -270 -257 0
1 270 269 0
1 -270 246 0
1 -270 167 0
1 270 244 0
1 -269 -253 0
1 269 337 0
1 269 246 0
1 -269 -255 0
1 -269 -338 0
1 269 -261 0
1 -269 167 0
1 269 -244 0
1 331 239 0
1 -331 281 0
1 -331 -269 0
1 -331 264 0
1 -331 -339 0
1 331 280 0
1 252 -263 0
1 252 -331 0
1 -252 281 0
1 -252 269 0
1 -252 -270 0
1 -253 -263 0
1 253 332 0
1 253 -269 0
1 -253 -264 0
1 253 -255 0
1 253 -339 0
1 -253 -152 0
1 -255 253 0
1 255 340 0
1 255 -341 0
1 -255 332 0
1 255 260 0
1 255 -240 0
1 255 -264 0
1 -255 -339 0
1 255 -342 0
1 255 -334 0
1 255 270 0
1 272 331 0
1 -272 257 0
1 -272 165 0
1 272 -176 0
1 272 252 0
1 -272 -338 0
1 -272 -261 0
1 272 -167 0
1 272 189 0
1 -272 258 0
1 -272 -334 0
1 -272 -265 0
1 266 -262 0
1 266 -257 0
1 266 332 0
1 266 165 0
1 -266 -259 0
1 -266 -338 0
1 -266 -261 0
1 -266 167 0
1 -266 -272 0
1 280 262 0
1 280 268 0
1 280 -267 0
1 -280 -252 0
1 280 -338 0
1 280 -261 0
1 280 265 0
1 280 -271 0
1 -281 331 0
1 281 -262 0
1 281 341 0
1 281 -259 0
1 -281 267 0
1 -281 176 0
1 281 252 0
1 -281 338 0
1 281 -280 0
1 -281 -343 0
1 281 265 0
1 259 -344 0
1 259 288 0
1 259 -277 0
1 259 -156 0
1 -259 -266 0
1 -259 -345 0
1 259 -276 0
1 -259 280 0
1 259 -272 0
1 261 344 0
1 -261 288 0
1 261 277 0
1 261 -281 0
1 -261 -266 0
1 261 -345 0
1 -261 -290 0
1 261 -276 0
1 261 280 0
1 261 270 0
1 -262 -344 0
1 262 346 0
1 -262 159 0
1 -262 -340 0
1 -262 281 0
1 -262 -266 0
1 262 -347 0
1 262 338 0
1 262 -339 0
1 262 272 0
1 -262 -270 0
1 338 344 0
1 338 -281 0
1 -338 -345 0
1 -338 -162 0
1 338 -347 0
1 -338 280 0
1 -338 270 0
1 -276 277 0
1 276 -259 0
1 -276 -268 0
1 -276 171 0
1 -276 -283 0
1 -276 -271 0
1 -276 343 0
1 -276 -265 0
1 277 198 0
1 277 -340 0
1 277 259 0
1 277 -268 0
1 -277 -267 0
1 -277 171 0
1 -277 -283 0
1 277 276 0
1 277 -261 0
1 -290 -182 0
1 -290 -259 0
1 -290 -268 0
1 -290 267 0
1 290 -279 0
1 -290 275 0
1 290 -347 0
1 -290 261 0
1 290 -271 0
1 290 343 0
1 -290 282 0
1 290 278 0
1 -288 182 0
1 -288 -346 0
1 288 -259 0
1 -288 -268 0
1 288 279 0
1 288 -283 0
1 -288 290 0
1 -288 261 0
1 -288 271 0
1 -288 278 0
1 -267 288 0
1 -267 277 0
1 267 -281 0
1 -267 -165 0
1 267 -289 0
1 -267 -290 0
1 267 -276 0
1 267 280 0
1 267 -343 0
1 -343 288 0
1 343 -277 0
1 -343 -267 0
1 -343 -289 0
1 -343 280 0
1 343 -295 0
1 -268 -277 0
1 -268 348 0
1 268 -276 0
1 268 280 0
1 268 271 0
1 268 349 0
1 271 -344 0
1 271 288 0
1 271 -280 0
1 271 -167 0
1 -289 182 0
1 289 274 0
1 289 -196 0
1 289 267 0
1 -289 -283 0
1 -289 -194 0
1 -289 -343 0
1 -289 -282 0
1 -287 344 0
1 287 -274 0
1 -287 -267 0
1 -287 275 0
1 287 289 0
1 287 -283 0
1 -287 -273 0
1 287 -194 0
1 287 282 0
1 287 278 0
1 -294 343 0
1 -294 267 0
1 -294 -292 0
1 294 275 0
1 294 -278 0
1 -294 -282 0
1 -294 -295 0
1 295 196 0
1 -295 -267 0
1 -295 -294 0
1 -295 -282 0
1 -295 278 0
1 295 -349 0
1 -275 287 0
1 -275 288 0
1 275 -171 0
1 -275 289 0
1 -275 290 0
1 -275 -295 0
1 -278 -287 0
1 -278 288 0
1 278 -275 0
1 -278 289 0
1 -278 -174 0
1 279 -287 0
1 -279 294 0
1 -279 -282 0
1 279 -290 0
1 -279 295 0
1 -282 288 0
1 282 294 0
1 -282 -290 0
1 282 295 0
1 308 299 0
1 -308 -228 0
1 -308 306 0
1 308 221 0
1 -308 -310 0
1 308 305 0
1 -308 -303 0
1 -308 301 0
1 -310 228 0
1 310 306 0
1 -310 -221 0
1 310 307 0
1 310 242 0
1 -310 -303 0
1 319 -311 0
1 319 228 0
1 -319 -302 0
1 319 309 0
1 319 -305 0
1 319 -303 0
1 319 -350 0
1 -320 -311 0
1 320 228 0
1 320 -319 0
1 -320 304 0
1 320 302 0
1 320 -351 0
1 320 -309 0
1 -320 -254 0
1 320 307 0
1 -320 -303 0
1 302 314 0
1 302 -308 0
1 -302 210 0
1 302 -352 0
1 -302 -320 0
1 302 303 0
1 303 330 0
1 -303 -314 0
1 303 319 0
1 303 308 0
1 -303 -302 0
1 303 -326 0
1 -303 -320 0
1 303 310 0
1 303 211 0
1 -303 353 0
1 304 -319 0
1 -304 -308 0
1 -304 300 0
1 -304 320 0
1 -304 310 0
1 304 -305 0
1 305 319 0
1 305 308 0
1 -305 213 0
1 305 354 0
1 314 -311 0
1 314 -228 0
1 314 302 0
1 314 317 0
1 -314 307 0
1 314 303 0
1 314 -350 0
1 317 311 0
1 -317 228 0
1 -317 -225 0
1 317 351 0
1 -317 -251 0
1 317 -309 0
1 -317 307 0
1 -317 224 0
1 317 312 0
1 317 -350 0
1 330 -263 0
1 330 -316 0
1 330 326 0
1 330 309 0
1 330 315 0
1 -330 312 0
1 330 -350 0
1 -326 -330 0
1 326 311 0
1 -326 355 0
1 -326 316 0
1 326 -237 0
1 -326 264 0
1 326 309 0
1 -326 -315 0
1 -326 312 0
1 326 303 0
1 -326 -350 0
1 -309 330 0
1 -309 -311 0
1 -309 -337 0
1 -309 326 0
1 309 -221 0
1 -309 317 0
1 309 356 0
1 309 320 0
1 309 335 0
1 -309 -323 0
1 -311 -299 0
1 311 330 0
1 -311 -357 0
1 311 314 0
1 311 358 0
1 311 -326 0
1 -311 -317 0
1 311 309 0
1 -311 320 0
1 -311 -335 0
1 -311 -323 0
1 -351 -330 0
1 -351 314 0
1 351 326 0
1 351 359 0
1 351 -350 0
1 350 330 0
1 350 -319 0
1 350 358 0
1 -350 -326 0
1 -350 320 0
1 -323 -355 0
1 -323 -321 0
1 323 329 0
1 -323 -325 0
1 -323 -315 0
1 323 -312 0
1 -323 -313 0
1 323 322 0
1 325 355 0
1 -325 -316 0
1 -325 237 0
1 325 329 0
1 325 -260 0
1 -325 318 0
1 325 312 0
1 325 313 0
1 325 323 0
1 -335 355 0
1 335 316 0
1 335 -324 0
1 -335 329 0
1 335 -318 0
1 -335 -315 0
1 335 -327 0
1 -335 322 0
1 -335 -270 0
1 337 -311 0
1 337 355 0
1 337 -316 0
1 -337 328 0
1 337 -329 0
1 337 -269 0
1 337 318 0
1 -337 -315 0
1 337 327 0
1 337 -322 0
1 315 -360 0
1 -315 332 0
1 -315 -325 0
1 -315 -326 0
1 -315 361 0
1 315 335 0
1 315 -323 0
1 316 330 0
1 -316 -225 0
1 -316 -341 0
1 316 332 0
1 316 -337 0
1 -316 361 0
1 -316 323 0
1 318 330 0
1 318 362 0
1 318 363 0
1 -318 -358 0
1 318 -325 0
1 318 -326 0
1 -318 364 0
1 318 -365 0
1 355 330 0
1 355 -228 0
1 -355 366 0
1 355 363 0
1 355 -337 0
1 -355 325 0
1 355 -326 0
1 355 -361 0
1 355 -359 0
1 355 -323 0
1 -334 316 0
1 334 328 0
1 334 -329 0
1 -334 -367 0
1 -334 315 0
1 334 272 0
1 -334 -322 0
1 -334 244 0
1 -332 -253 0
1 -332 316 0
1 332 -328 0
1 -332 -358 0
1 -332 -329 0
1 332 327 0
1 332 334 0
1 342 -316 0
1 342 341 0
1 -342 328 0
1 342 327 0
1 342 368 0
1 -342 255 0
1 -342 280 0
1 -342 -333 0
1 341 253 0
1 -341 316 0
1 341 -281 0
1 341 -328 0
1 341 -336 0
1 341 -255 0
1 341 315 0
1 341 342 0
1 -341 327 0
1 341 367 0
1 341 -333 0
1 -367 -369 0
1 367 -332 0
1 367 -313 0
1 367 370 0
1 -367 339 0
1 -367 -342 0
1 367 334 0
1 -367 -335 0
1 -324 346 0
1 -324 -340 0
1 -324 -332 0
1 324 -321 0
1 324 -339 0
1 -324 -342 0
1 324 -334 0
1 -324 335 0
1 327 -369 0
1 327 -341 0
1 327 -312 0
1 327 328 0
1 327 -370 0
1 -327 361 0
1 -327 -334 0
1 328 -369 0
1 328 332 0
1 -328 -371 0
1 328 342 0
1 -328 327 0
1 -328 -334 0
1 -339 331 0
1 339 -340 0
1 -339 -324 0
1 339 255 0
1 -339 252 0
1 -339 338 0
1 -339 -367 0
1 -340 253 0
1 340 362 0
1 -340 -324 0
1 -340 -368 0
1 340 255 0
1 -340 252 0
1 340 -338 0
1 340 339 0
1 -340 -367 0
1 -340 333 0
1 -347 346 0
1 -347 -372 0
1 347 -368 0
1 347 373 0
1 -347 374 0
1 -347 290 0
1 347 338 0
1 347 -371 0
1 347 -375 0
1 347 -333 0
1 -346 376 0
1 -346 288 0
1 -346 -377 0
1 -346 -262 0
1 -346 -324 0
1 346 347 0
1 346 375 0
1 333 -344 0
1 333 -346 0
1 333 -340 0
1 -333 341 0
1 -333 368 0
1 -333 348 0
1 333 -345 0
1 -333 -347 0
1 -333 342 0
1 -368 344 0
1 368 -346 0
1 -368 340 0
1 368 339 0
1 368 -342 0
1 375 -378 0
1 -375 -369 0
1 375 -340 0
1 -375 341 0
1 -375 -379 0
1 336 -369 0
1 336 346 0
1 336 -341 0
1 336 -370 0
1 336 -347 0
1 -336 375 0
1 -336 339 0
1 336 -342 0
1 -345 -344 0
1 345 372 0
1 -345 -268 0
1 345 -368 0
1 -345 -289 0
1 345 338 0
1 345 -261 0
1 345 271 0
1 345 333 0
1 344 287 0
1 344 -369 0
1 344 372 0
1 -344 -262 0
1 344 -259 0
1 344 268 0
1 -344 373 0
1 344 345 0
1 -344 -261 0
1 -344 -333 0
1 348 372 0
1 348 268 0
1 348 368 0
1 -348 -373 0
1 -348 271 0
1 -349 268 0
1 -349 -373 0
1 349 -374 0
1 349 -271 0
1 -349 -295 0
1 372 -345 0
1 -372 374 0
1 -372 347 0
1 -372 349 0
1 -374 -346 0
1 -374 -372 0
1 -374 -348 0
1 374 -252 0
1 374 347 0
1 374 -349 0
1 -376 -253 0
1 376 -346 0
1 -376 -348 0
1 376 373 0
1 -376 347 0
1 -373 -346 0
1 373 -345 0
1 -373 -349 0
1 -359 311 0
1 359 355 0
1 359 352 0
1 -359 -351 0
1 359 -318 0
1 -359 -353 0
1 -358 -311 0
1 -358 355 0
1 -358 -380 0
1 -358 -352 0
1 358 318 0
1 -358 -354 0
1 -358 350 0
1 -365 -355 0
1 365 -380 0
1 365 352 0
1 -365 -356 0
1 365 318 0
1 -365 354 0
1 -365 -353 0
1 363 -381 0
1 363 -341 0
1 363 -380 0
1 -363 352 0
1 363 -382 0
1 -363 -356 0
1 363 318 0
1 363 -365 0
1 363 354 0
1 -352 377 0
1 -352 363 0
1 352 353 0
1 352 358 0
1 -352 -302 0
1 -352 -371 0
1 352 -361 0
1 -352 365 0
1 -352 -359 0
1 -353 -377 0
1 -353 -362 0
1 353 -363 0
1 -353 352 0
1 -353 361 0
1 353 -365 0
1 380 363 0
1 -380 -304 0
1 -380 365 0
1 -380 354 0
1 354 -363 0
1 354 -365 0
1 354 359 0
1 361 -316 0
1 361 -362 0
1 -361 -352 0
1 361 -382 0
1 361 353 0
1 362 -355 0
1 -362 316 0
1 -362 352 0
1 362 382 0
1 362 -318 0
1 362 -361 0
1 371 381 0
1 371 -377 0
1 -371 366 0
1 -371 -352 0
1 -371 382 0
1 371 356 0
1 -371 -347 0
1 -371 -364 0
1 371 -360 0
1 -371 327 0
1 -371 353 0
1 377 346 0
1 377 366 0
1 377 -383 0
1 -377 352 0
1 377 382 0
1 -377 356 0
1 -377 364 0
1 -377 -353 0
1 356 -378 0
1 356 -377 0
1 356 -362 0
1 356 -363 0
1 -356 379 0
1 356 -370 0
1 356 -365 0
1 357 -311 0
1 -357 -356 0
1 357 -371 0
1 382 381 0
1 -382 377 0
1 382 362 0
1 -382 363 0
1 382 351 0
1 382 371 0
1 -382 365 0
1 381 -362 0
1 381 -361 0
1 370 366 0
1 370 328 0
1 370 -324 0
1 -370 345 0
1 -370 364 0
1 -370 360 0
1 370 -327 0
1 -369 -357 0
1 369 366 0
1 -369 383 0
1 -369 -328 0
1 369 336 0
1 369 -356 0
1 369 364 0
1 369 -360 0
1 -369 327 0
1 -369 367 0
1 369 -375 0
1 -379 357 0
1 379 -366 0
1 379 -383 0
1 379 356 0
1 379 -360 0
1 -379 375 0
1 378 357 0
1 378 366 0
1 -378 -356 0
1 378 364 0
1 378 -375 0
1 378 349 0
1 -360 378 0
1 360 -369 0
1 360 -377 0
1 -360 383 0
1 -360 -379 0
1 -360 -371 0
1 360 315 0
1 -383 -369 0
1 383 -377 0
1 383 316 0
1 -383 379 0
1 383 -370 0
1 -364 -378 0
1 -364 -369 0
1 -364 377 0
1 -364 -379 0
1 -364 370 0
1 -364 -371 0
1 366 -378 0
1 366 -369 0
1 -366 -355 0
1 366 379 0
1 366 370 0
1 -366 -371 0
1 -366 364 0
